
  32    4
  10   10   10   10

   0   0   0   0   0  16 2 3 4 5 6 9 10 11 24 25 26 27 28 29 30 31 
   3   1   1   0   1   5 19 18 17 14 13 
   5   6   6   0   4   5 23 22 16 15 12 
   6   0   4   1   4   3 19 14 7 
   4   3   2   5   0   4 18 17 16 13 
   6   3   0   4   4   2 15 8 
   9   6   3   0   2   2 21 20 
   7   2   0   8   7   1 12 
   1   4   8   4   0   1 14 
   7   4   4   4   0   1 13 
   3   6   0   3   5   1 12 
   3   0   5   1   6   1 32
   6   5   5   0   4   1 32
   5   2   6   0   4   1 32
  10   2   3   0   3   1 32
  10   0   6   5   6   1 32
   2   2   0   4   6   1 32
   9   0   3   3   2   1 32
   5   4   0   4   2   1 32
  10   0   4   3   3   1 32
   4   3   4   7   0   1 32
   4   7   4   0   3   1 32
   8   0   1   4   5   1 32
   5   0   5   2   2   1 32
   8   3   6   5   0   1 32
  10   8   3   1   0   1 32
   7   4   3   8   0   1 32
   2   0   5   5   7   1 32
   6   6   2   2   0   1 32
  10   4   3   3   0   1 32
   1   3   4   6   0   1 32
   0   0   0   0   0   0 
